Name: Ing0809-1
Courses: 142
Rooms: 21
Days: 5
Periods_per_day: 5
Curricula: 83
Constraints: 841

COURSES:
c0061 t000 2 2 50
c0099 t001 4 3 110
c0007 t002 2 2 12
c0011 t003 2 2 15
c0015 t004 2 2 15
c0018 t005 2 2 32
c0020 t005 2 2 24
c0023 t006 2 2 129
c0026 t007 2 2 29
c0027 t008 2 2 29
c0046 t002 2 2 94
c0058 t009 4 4 104
c0064 t010 2 2 50
c0085 t011 2 2 105
c0091 t011 2 2 12
c0097 t012 2 2 160
c0101 t013 2 2 80
c0105 t014 2 2 143
c0109 t015 2 2 80
c0110 t009 4 4 160
c0128 t016 2 2 104
c0132 t017 2 2 104
c0137 t018 2 2 100
c0163 t019 2 2 100
c0184 t020 2 2 113
c0185 t021 2 2 113
c0201 t022 2 1 113
c0212 t023 2 2 86
c0215 t024 2 2 155
c0216 t025 2 2 136
c0220 t026 2 2 97
c0221 t026 2 2 156
c0224 t027 2 2 86
c0225 t028 2 2 85
c0231 t029 2 2 87
c0243 t030 2 2 49
c0412 t031 2 2 11
c0420 t032 2 2 43
c0422 t026 2 2 50
c0427 t027 2 2 87
c0429 t033 2 2 143
c0433 t034 2 2 32
c0439 t035 2 2 19
c0440 t036 2 2 32
c0442 t025 2 2 8
c0446 t037 2 1 25
c0450 t038 2 2 77
c0452 t006 3 2 55
c0455 t039 2 2 77
c0462 t040 2 2 67
c0463 t041 2 2 67
c0465 t042 2 2 67
c0474 t043 2 2 99
c0484 t044 2 2 38
c0486 t045 2 2 37
c0487 t043 2 2 75
c0491 t046 2 2 8
c0496 t047 2 2 37
c0498 t048 2 2 50
c0501 t049 2 2 29
c0503 t012 2 2 37
c0512 t050 2 2 69
c0513 t051 2 2 69
c0519 t052 4 4 75
c0520 t053 2 2 115
c0724 t051 2 2 69
c0725 t054 2 2 69
c0742 t055 2 2 50
c0767 t056 2 2 85
c0769 t057 2 2 52
c0772 t058 2 2 92
c0790 t059 2 2 26
c0793 t060 2 2 12
c0803 t041 2 2 15
c0806 t061 2 2 10
c0808 t029 2 2 26
c0816 t062 2 2 54
c0820 t062 2 2 16
c0821 t061 4 3 16
c0823 t063 2 2 19
c0826 t063 2 2 19
c0828 t064 2 2 16
c0830 t065 2 2 31
c0836 t003 2 2 59
c0839 t041 2 2 80
c0846 t066 2 2 80
c0848 t032 2 2 80
c0852 t067 2 2 80
c0857 t041 5 2 20
c0861 t068 5 2 20
c0865 t069 5 2 20
c0868 t070 5 2 20
c0881 t071 2 2 100
c0882 t017 5 2 10
c0884 t018 5 2 205
c0932 t034 2 2 82
c0935 t072 4 3 70
c0980 t073 5 2 80
c1013 t074 3 3 60
c1042 t075 2 2 100
c1053 t045 2 2 23
c1062 t041 2 1 40
c1065 t076 2 2 80
c1066 t077 2 2 40
c1067 t078 2 2 15
c1074 t075 2 2 10
c1088 t010 2 2 23
c1155 t079 7 2 52
c1156 t080 7 2 52
c1175 t081 7 2 40
c1174 t082 7 2 40
c1166 t083 5 2 40
c1167 t084 5 2 40
c1180 t085 2 2 172
c1216 t086 4 3 60
c1219 t087 2 2 142
c1224 t088 4 3 150
c1233 t089 2 2 50
c1235 t090 2 2 81
c1239 t091 2 2 90
c1240 t092 4 3 90
c1258 t093 3 2 75
c1259 t037 3 3 80
c1262 t094 3 3 255
c1266 t041 2 2 90
c1275 t042 2 2 124
c1278 t095 2 2 173
c1298 t096 2 2 176
c1306 t097 4 4 125
c1309 t098 2 2 305
c1020 t078 2 2 24
c1295 t096 2 2 125
c1291 t099 2 2 249
c1191 t041 2 1 50
c1058 t100 2 2 50
c1220 t101 4 3 120
c1229 t030 3 3 100
c1327 t102 2 2 155
c1260 t103 3 3 155
c1343 t104 2 2 46
c1001 t105 2 1 75
c1022 t049 2 2 12

ROOMS:
r25 40
r36 42
r37 42
r38 48
r34 50
r27 65
B 216
D 216
F 216
G 216
A 312
L 336
N 30
Er1 70
Er2 70
r52 60
E 216
r50 75
r51 78
DS1 60
DS2 60

CURRICULA:
q000 4 c1239 c1240 c1309 c1266 
q001 5 c1309 c0097 c0101 c0109 c0110 
q002 3 c0099 c0105 c0935 
q003 4 c1224 c1233 c1235 c0216 
q004 6 c1235 c0007 c0224 c0023 c0212 c0216 
q005 6 c1235 c0224 c0023 c0212 c0085 c0216 
q006 6 c1235 c0224 c0212 c0023 c0427 c0216 
q007 7 c0011 c0015 c0018 c0020 c0026 c0027 c1020 
q008 6 c0231 c0220 c0221 c0427 c0790 c0091 
q009 7 c0015 c0823 c0011 c0826 c0830 c0769 c0772 
q010 3 c1216 c1219 c1220 
q011 4 c0058 c1219 c1013 c1220 
q012 6 c0061 c0064 c1058 c1191 c0046 c0742 
q013 4 c1224 c0215 c1327 c1229 
q014 6 c0212 c0215 c0216 c0224 c0023 c1327 
q015 8 c0212 c0215 c0216 c0224 c0023 c0769 c0772 c1327 
q016 6 c0220 c0221 c0225 c0231 c0767 c0085 
q017 6 c0220 c0221 c0225 c0243 c0767 c0932 
q018 5 c0220 c0221 c0225 c0767 c0427 
q019 4 c1309 c1306 c1295 c1291 
q020 5 c1275 c0097 c0110 c1291 c1309 
q021 6 c0184 c0185 c1278 c0105 c0201 c1180 
q022 6 c0184 c0185 c1278 c0105 c0201 c0018 
q023 6 c0184 c0185 c1278 c0105 c0201 c0429 
q024 4 c1259 c1260 c0884 c1262 
q025 4 c1258 c1260 c0884 c1262 
q026 5 c0128 c0132 c0881 c1155 c0882 
q027 5 c0128 c0132 c0881 c1156 c0882 
q028 5 c0128 c0132 c0881 c1155 c0980 
q029 5 c0128 c0132 c0881 c1156 c0980 
q030 5 c0128 c0132 c0769 c1155 c0772 
q031 5 c0128 c0132 c0769 c1156 c0772 
q032 5 c0128 c0132 c0881 c1155 c0884 
q033 5 c0128 c0132 c0881 c1156 c0884 
q034 4 c0137 c1262 c0163 c1042 
q036 4 c0046 c1275 c0058 c1291 
q037 7 c0184 c0185 c1278 c0201 c1298 c0474 c1180 
q038 6 c0450 c0455 c1219 c0503 c0474 c1180 
q039 6 c0450 c1298 c0455 c1219 c0503 c1180 
q040 6 c0450 c0452 c1298 c0455 c0429 c1180 
q041 6 c0450 c0452 c1298 c0455 c0018 c1180 
q042 5 c0462 c0463 c0465 c0496 c1298 
q043 6 c0462 c0463 c0465 c0498 c0496 c0474 
q044 5 c0462 c0463 c0465 c0099 c0520 
q045 6 c0462 c0463 c0465 c0027 c0803 c0026 
q046 8 c0412 c0420 c0231 c0439 c0836 c0023 c0221 c0243 
q047 9 c0412 c0420 c0231 c0439 c0836 c0023 c0221 c0932 c1074 
q048 8 c0420 c0433 c0836 c0023 c0221 c0231 c0440 c0932 
q049 8 c0420 c0433 c0836 c0023 c0221 c0243 c0440 c0932 
q050 8 c0420 c0433 c0836 c0023 c0221 c0439 c0440 c0932 
q051 8 c0420 c0433 c0836 c0023 c0221 c0440 c0442 c0932 
q052 5 c0422 c0816 c0427 c0429 c0085 
q053 6 c0422 c0429 c0816 c0427 c0085 c0446 
q054 4 c0474 c0486 c0487 c1343 
q055 6 c0474 c0486 c0487 c1343 c1298 c0498 
q056 5 c0474 c0486 c0487 c1298 c0501 
q057 6 c0484 c0487 c0491 c1053 c1343 c1088 
q058 8 c0484 c0487 c0496 c0498 c1053 c1298 c1067 c1343 
q059 6 c0484 c0487 c1088 c0501 c0503 c1298 
q060 4 c0512 c0513 c0724 c0725 
q061 5 c0512 c0513 c0724 c0725 c0429 
q062 4 c0519 c0520 c1001 c1278 
q063 3 c0519 c0520 c1001 
q064 8 c0793 c0830 c0018 c0020 c0026 c1020 c1022 c0027 
q065 7 c0816 c0836 c0231 c0221 c0427 c0820 c0830 
q066 7 c0836 c0830 c0828 c0231 c0221 c0427 c0820 
q067 4 c0803 c0806 c0808 c0790 
q068 6 c0790 c0821 c0823 c0826 c0808 c0828 
q069 4 c0821 c0823 c0808 c0826 
q070 6 c0846 c0852 c0772 c0980 c0769 c1166 
q071 6 c0846 c0852 c0772 c0980 c0769 c1167 
q072 6 c0846 c0852 c0772 c1062 c0769 c1166 
q073 6 c0846 c0852 c0772 c1062 c0769 c1167 
q074 6 c0846 c0852 c0772 c1062 c1066 c1166 
q075 6 c0846 c0852 c0772 c1062 c1066 c1167 
q076 5 c0839 c0848 c1065 c1174 c0857 
q077 5 c0839 c0848 c1065 c1175 c0857 
q078 5 c0839 c0848 c1065 c1174 c0861 
q079 5 c0839 c0848 c1065 c1175 c0861 
q080 5 c0839 c0848 c1065 c1174 c0865 
q081 5 c0839 c0848 c1065 c1175 c0865 
q082 5 c0839 c0848 c1065 c1174 c0868 
q083 5 c0839 c0848 c1065 c1175 c0868 

UNAVAILABILITY_CONSTRAINTS:
c0061 0 0
c0061 0 1
c0061 1 0
c0061 1 1
c0061 2 0
c0061 2 1
c0061 3 0
c0061 3 1
c0061 4 0
c0061 4 1
c0099 0 0
c0099 0 1
c0099 1 0
c0099 1 1
c0099 2 2
c0099 2 3
c0099 2 4
c0099 3 2
c0099 3 3
c0099 3 4
c0099 4 2
c0099 4 3
c0099 4 4
c0007 0 0
c0007 0 4
c0007 1 0
c0007 1 4
c0007 2 0
c0007 2 4
c0007 3 0
c0007 4 0
c0011 3 0
c0011 3 1
c0011 3 2
c0011 3 3
c0011 3 4
c0011 4 4
c0015 0 0
c0015 0 2
c0015 1 0
c0015 1 2
c0015 2 0
c0015 2 2
c0015 3 2
c0015 4 2
c0018 0 0
c0018 0 1
c0018 0 2
c0018 1 0
c0018 2 0
c0018 3 0
c0018 4 3
c0018 4 4
c0020 0 0
c0020 0 1
c0020 0 2
c0020 1 0
c0020 2 0
c0020 3 0
c0020 4 3
c0020 4 4
c0023 0 0
c0023 0 1
c0023 0 2
c0023 0 3
c0023 0 4
c0023 1 0
c0023 4 0
c0023 4 1
c0023 4 2
c0023 4 3
c0023 4 4
c0026 0 0
c0026 0 1
c0026 0 2
c0026 0 3
c0026 0 4
c0026 2 0
c0026 3 0
c0026 4 0
c0027 0 0
c0027 0 1
c0027 0 2
c0027 4 0
c0027 4 1
c0027 4 2
c0027 4 3
c0027 4 4
c0046 0 0
c0046 0 4
c0046 1 0
c0046 1 4
c0046 2 0
c0046 2 4
c0046 3 0
c0046 4 0
c0058 0 0
c0058 1 0
c0058 2 0
c0058 2 3
c0058 2 4
c0058 3 0
c0058 3 1
c0058 3 2
c0058 3 3
c0058 3 4
c0064 0 3
c0064 0 4
c0064 1 3
c0064 1 4
c0064 2 3
c0064 2 4
c0064 4 3
c0064 4 4
c0085 0 4
c0085 1 4
c0085 2 4
c0085 3 4
c0085 4 4
c0091 0 4
c0091 1 4
c0091 2 4
c0091 3 4
c0091 4 4
c0097 0 0
c0097 0 1
c0097 0 2
c0097 0 3
c0097 0 4
c0097 1 0
c0097 1 1
c0097 1 2
c0101 3 0
c0101 3 1
c0101 3 2
c0101 3 3
c0101 3 4
c0101 4 0
c0101 4 1
c0101 4 2
c0101 4 3
c0101 4 4
c0110 0 0
c0110 1 0
c0110 2 0
c0110 3 0
c0110 3 1
c0110 3 2
c0110 3 3
c0110 3 4
c0128 0 2
c0128 1 2
c0128 1 4
c0128 3 2
c0128 3 4
c0128 4 2
c0128 4 4
c0132 0 0
c0132 0 1
c0132 1 0
c0132 1 1
c0132 2 0
c0132 2 1
c0132 3 0
c0132 3 1
c0132 4 0
c0132 4 1
c0132 4 2
c0137 0 0
c0137 0 1
c0137 0 2
c0137 4 0
c0137 4 1
c0137 4 2
c0137 4 3
c0137 4 4
c0212 0 2
c0212 0 4
c0212 1 2
c0212 1 3
c0212 1 4
c0212 2 2
c0212 2 4
c0212 3 2
c0212 3 4
c0212 4 2
c0212 4 3
c0212 4 4
c0215 0 0
c0215 0 1
c0215 0 2
c0215 0 3
c0215 0 4
c0215 2 2
c0215 2 3
c0215 2 4
c0216 0 0
c0216 0 1
c0216 0 2
c0216 0 3
c0216 0 4
c0216 1 0
c0216 1 1
c0216 4 4
c0224 1 4
c0224 2 4
c0224 3 4
c0224 4 0
c0224 4 1
c0224 4 2
c0224 4 3
c0224 4 4
c0225 0 0
c0225 0 1
c0231 0 0
c0231 0 2
c0231 1 2
c0231 2 0
c0231 2 2
c0231 3 2
c0231 4 0
c0231 4 2
c0420 0 0
c0420 0 1
c0420 0 2
c0420 0 3
c0420 0 4
c0420 1 0
c0420 1 1
c0420 1 2
c0427 1 4
c0427 2 4
c0427 3 4
c0427 4 0
c0427 4 1
c0427 4 2
c0427 4 3
c0427 4 4
c0429 0 4
c0429 1 4
c0429 2 4
c0429 3 4
c0429 4 4
c0433 0 2
c0433 1 2
c0433 2 2
c0433 3 2
c0433 4 2
c0439 0 2
c0439 0 4
c0439 1 2
c0439 1 4
c0439 2 2
c0439 2 4
c0439 3 2
c0439 4 2
c0440 0 0
c0440 0 1
c0440 0 2
c0440 0 3
c0440 0 4
c0440 1 2
c0440 2 2
c0440 3 2
c0442 0 0
c0442 0 1
c0442 0 2
c0442 0 3
c0442 0 4
c0442 1 0
c0442 1 1
c0442 4 4
c0450 3 0
c0450 3 1
c0450 3 2
c0450 3 3
c0450 3 4
c0452 0 0
c0452 0 1
c0452 1 1
c0452 1 2
c0452 1 3
c0452 1 4
c0452 2 0
c0452 2 1
c0452 2 2
c0452 2 3
c0452 2 4
c0452 3 0
c0452 3 1
c0452 3 2
c0452 3 3
c0452 3 4
c0452 4 0
c0452 4 1
c0452 4 2
c0452 4 3
c0452 4 4
c0455 0 2
c0455 1 2
c0455 1 3
c0455 2 2
c0455 2 3
c0455 3 2
c0455 3 3
c0455 4 2
c0462 0 0
c0462 2 3
c0462 2 4
c0462 4 0
c0462 4 1
c0462 4 2
c0462 4 3
c0462 4 4
c0463 0 0
c0463 0 1
c0463 0 3
c0463 0 4
c0463 1 0
c0463 1 1
c0463 1 3
c0463 1 4
c0463 2 0
c0463 2 1
c0463 2 3
c0463 2 4
c0463 3 0
c0463 3 1
c0463 3 3
c0463 3 4
c0463 4 0
c0463 4 1
c0463 4 3
c0463 4 4
c0465 1 0
c0465 1 1
c0465 1 2
c0465 1 3
c0465 1 4
c0465 3 0
c0465 3 1
c0465 3 2
c0465 3 3
c0465 3 4
c0474 0 0
c0474 0 1
c0474 0 2
c0474 0 3
c0474 0 4
c0474 4 2
c0474 4 3
c0474 4 4
c0484 0 0
c0484 0 1
c0484 0 2
c0484 0 3
c0484 0 4
c0484 4 2
c0484 4 3
c0484 4 4
c0486 0 1
c0486 0 2
c0486 0 3
c0486 0 4
c0486 1 0
c0486 3 1
c0486 3 2
c0486 3 3
c0486 3 4
c0486 4 0
c0486 4 1
c0486 4 2
c0486 4 3
c0486 4 4
c0487 0 0
c0487 0 1
c0487 0 2
c0487 0 3
c0487 0 4
c0487 4 2
c0487 4 3
c0487 4 4
c0498 0 2
c0498 0 3
c0498 0 4
c0498 1 2
c0498 2 2
c0498 3 2
c0498 4 2
c0498 4 4
c0501 0 0
c0501 0 1
c0501 0 2
c0501 0 3
c0501 0 4
c0501 1 0
c0501 2 0
c0501 2 1
c0501 3 0
c0501 4 0
c0501 4 1
c0501 4 2
c0501 4 3
c0501 4 4
c0503 0 0
c0503 0 1
c0503 0 2
c0503 0 3
c0503 0 4
c0503 1 0
c0503 1 1
c0503 1 2
c0512 0 0
c0512 1 0
c0512 2 0
c0512 3 0
c0512 4 0
c0513 0 0
c0513 0 1
c0513 0 2
c0513 1 0
c0513 2 0
c0513 3 0
c0513 4 0
c0513 4 4
c0520 3 3
c0520 3 4
c0520 4 3
c0520 4 4
c0724 0 0
c0724 0 1
c0724 0 2
c0724 1 0
c0724 2 0
c0724 3 0
c0724 4 0
c0724 4 4
c0725 0 2
c0725 1 2
c0725 2 2
c0725 3 2
c0725 4 2
c0742 0 0
c0742 0 1
c0742 0 2
c0742 0 3
c0742 4 1
c0742 4 2
c0742 4 3
c0742 4 4
c0769 4 2
c0772 0 0
c0772 0 1
c0772 0 2
c0772 1 0
c0772 1 1
c0772 1 2
c0772 3 0
c0772 3 1
c0772 3 2
c0772 3 3
c0772 3 4
c0772 4 0
c0772 4 1
c0772 4 2
c0772 4 3
c0772 4 4
c0790 0 2
c0790 0 3
c0790 0 4
c0790 2 2
c0790 2 3
c0790 4 2
c0790 4 3
c0790 4 4
c0793 0 0
c0793 0 4
c0793 1 0
c0793 1 4
c0793 2 0
c0793 2 4
c0793 3 0
c0793 3 4
c0793 4 0
c0793 4 4
c0806 0 2
c0806 0 3
c0806 0 4
c0806 2 0
c0806 2 1
c0806 4 2
c0806 4 3
c0806 4 4
c0808 0 0
c0808 0 2
c0808 1 2
c0808 2 0
c0808 2 2
c0808 3 2
c0808 4 0
c0808 4 2
c0821 0 2
c0821 0 3
c0821 0 4
c0821 2 0
c0821 2 1
c0821 4 2
c0821 4 3
c0821 4 4
c0828 0 0
c0828 0 2
c0828 1 0
c0828 1 2
c0828 2 0
c0828 2 2
c0828 3 2
c0828 4 2
c0830 0 4
c0830 1 4
c0830 2 3
c0830 2 4
c0830 3 3
c0830 3 4
c0830 4 3
c0830 4 4
c0836 3 0
c0836 3 1
c0836 3 2
c0836 3 3
c0836 3 4
c0836 4 4
c0839 0 2
c0848 0 0
c0848 0 1
c0848 0 2
c0848 0 3
c0848 0 4
c0848 1 0
c0848 1 1
c0848 1 2
c0857 0 2
c0861 0 2
c0865 0 2
c0868 0 2
c0881 4 2
c0882 4 2
c0884 0 0
c0884 0 1
c0884 0 2
c0884 4 0
c0884 4 1
c0884 4 2
c0884 4 3
c0884 4 4
c0932 0 2
c0932 1 2
c0932 2 2
c0932 3 2
c0932 4 2
c0935 0 0
c0935 0 1
c0935 0 2
c0935 0 3
c0935 0 4
c0935 4 2
c0935 4 3
c0935 4 4
c0980 4 2
c1013 0 2
c1013 0 4
c1013 1 2
c1013 1 4
c1013 2 2
c1013 2 4
c1013 3 2
c1013 3 4
c1013 4 2
c1013 4 4
c1042 0 1
c1042 0 2
c1042 0 3
c1042 0 4
c1042 1 1
c1042 1 2
c1042 1 3
c1042 1 4
c1042 2 1
c1042 2 2
c1042 2 3
c1042 2 4
c1042 3 1
c1042 3 2
c1042 3 3
c1042 3 4
c1042 4 1
c1042 4 2
c1042 4 3
c1042 4 4
c1053 0 1
c1053 0 2
c1053 0 3
c1053 0 4
c1053 1 0
c1053 3 1
c1053 3 2
c1053 3 3
c1053 3 4
c1053 4 0
c1053 4 1
c1053 4 2
c1053 4 3
c1053 4 4
c1065 0 0
c1065 0 1
c1065 0 2
c1065 3 2
c1065 3 3
c1065 3 4
c1065 4 0
c1065 4 1
c1065 4 2
c1065 4 3
c1065 4 4
c1067 0 0
c1067 0 1
c1067 0 2
c1067 0 3
c1067 0 4
c1067 1 0
c1067 1 1
c1067 4 4
c1074 0 1
c1074 0 2
c1074 0 3
c1074 0 4
c1074 1 1
c1074 1 2
c1074 1 3
c1074 1 4
c1074 2 1
c1074 2 2
c1074 2 3
c1074 2 4
c1074 3 1
c1074 3 2
c1074 3 3
c1074 3 4
c1074 4 1
c1074 4 2
c1074 4 3
c1074 4 4
c1088 0 3
c1088 0 4
c1088 1 3
c1088 1 4
c1088 2 3
c1088 2 4
c1088 4 3
c1088 4 4
c1180 0 0
c1180 0 1
c1180 0 2
c1180 0 3
c1180 0 4
c1180 1 4
c1180 2 4
c1180 3 4
c1216 0 2
c1216 0 3
c1216 0 4
c1216 1 2
c1216 1 3
c1216 1 4
c1216 2 2
c1216 2 3
c1216 2 4
c1216 3 2
c1216 3 3
c1216 3 4
c1216 4 2
c1216 4 3
c1216 4 4
c1224 0 0
c1224 0 1
c1224 0 2
c1224 0 4
c1224 1 2
c1224 1 4
c1224 2 2
c1224 2 4
c1224 3 2
c1224 3 4
c1224 4 1
c1224 4 2
c1224 4 3
c1224 4 4
c1235 0 0
c1235 0 1
c1235 0 2
c1235 0 3
c1235 0 4
c1235 1 0
c1235 1 1
c1235 1 2
c1235 1 3
c1235 1 4
c1235 2 4
c1235 3 4
c1235 4 4
c1239 0 1
c1239 0 2
c1239 1 1
c1239 1 2
c1239 2 1
c1239 2 2
c1239 3 1
c1239 3 2
c1239 4 1
c1239 4 2
c1240 0 2
c1240 0 3
c1240 0 4
c1240 1 2
c1240 1 3
c1240 1 4
c1240 2 2
c1240 2 3
c1240 2 4
c1240 3 2
c1240 3 3
c1240 3 4
c1240 4 2
c1240 4 3
c1240 4 4
c1275 1 0
c1275 1 1
c1275 1 2
c1275 1 3
c1275 1 4
c1275 3 0
c1275 3 1
c1275 3 2
c1275 3 3
c1275 3 4
c1278 0 0
c1278 0 1
c1278 0 2
c1278 0 3
c1278 0 4
c1278 4 0
c1278 4 1
c1278 4 2
c1278 4 3
c1278 4 4
c1298 0 4
c1298 1 4
c1298 2 2
c1298 2 4
c1298 3 4
c1298 4 4
c1306 0 2
c1306 0 4
c1306 1 2
c1306 1 4
c1306 2 2
c1306 2 4
c1306 3 2
c1306 3 4
c1306 4 2
c1306 4 3
c1306 4 4
c1309 0 3
c1309 0 4
c1309 1 3
c1309 1 4
c1309 2 3
c1309 2 4
c1309 3 3
c1309 3 4
c1309 4 3
c1309 4 4
c1020 0 0
c1020 0 1
c1020 0 2
c1020 0 3
c1020 0 4
c1020 1 0
c1020 1 1
c1020 4 4
c1295 0 4
c1295 1 4
c1295 2 2
c1295 2 4
c1295 3 4
c1295 4 4
c1291 0 4
c1291 1 4
c1291 2 4
c1291 3 4
c1291 4 4
c1220 0 4
c1220 1 3
c1220 1 4
c1220 2 4
c1220 4 0
c1220 4 1
c1220 4 2
c1220 4 3
c1220 4 4
c1327 0 0
c1327 0 4
c1327 1 0
c1327 1 1
c1327 1 2
c1327 1 3
c1327 1 4
c1327 2 0
c1327 2 1
c1327 2 2
c1327 2 3
c1327 2 4
c1327 3 0
c1327 4 0
c1343 0 0
c1343 0 1
c1343 0 2
c1343 0 3
c1343 0 4
c1343 4 2
c1343 4 3
c1343 4 4
c1022 0 0
c1022 0 1
c1022 0 2
c1022 0 3
c1022 0 4
c1022 4 0
c1022 4 1
c1022 4 2
c1022 4 3
c1022 4 4

END.
